c This cnf file is generated with the following input: k = 3, n = 150, r = 0.2
p cnf 150 30
82 -84 -105 0
88 74 -15 0
64 86 25 0
2 -40 -61 0
-145 135 30 0
-33 -38 74 0
-84 102 45 0
59 125 93 0
65 -11 -79 0
-19 35 -30 0
-131 -102 41 0
-97 -132 -136 0
-115 9 15 0
-33 -18 -58 0
-147 -123 -124 0
-98 36 -71 0
-130 -150 142 0
48 8 108 0
82 102 56 0
-33 147 90 0
-37 9 -126 0
98 -10 -12 0
33 -105 75 0
64 -88 107 0
-135 91 -28 0
-113 124 142 0
36 103 60 0
97 18 -56 0
-1 -137 121 0
-135 104 -142 0
